NAME: cum20.tsp
TYPE: TSP
COMMENT: User-generated TSP file
DIMENSION: 20
EDGE_WEIGHT_TYPE: EUC_2D
NODE_COORD_SECTION
1 53.0 74.0
2 20.0 49.0
3 10.0 99.0
4 74.0 5.0
5 90.0 8.0
6 68.0 60.0
7 33.0 67.0
8 64.0 8.0
9 43.0 15.0
10 50.0 40.0
11 50.0 14.0
12 56.0 21.0
13 55.0 56.0
14 91.0 39.0
15 55.0 13.0
16 18.0 91.0
17 35.0 48.0
18 97.0 18.0
19 61.0 60.0
20 14.0 39.0
EOF

